language ESSENCE' 1.0

letting C_FunctionND be
        [[0, 0, 0, 0, 0, 0, 0, 0, 0, 0, 0, 0, 0; int(0..12)], [1, 0, 0, 0, 0, 0, 0, 0, 0, 0, 0, 0, 0; int(0..12)],
         [1, 0, 0, 0, 0, 0, 0, 0, 0, 0, 0, 0, 0; int(0..12)], [1, 0, 0, 0, 0, 0, 0, 0, 0, 0, 0, 0, 0; int(0..12)],
         [1, 0, 0, 0, 0, 0, 0, 0, 0, 0, 0, 0, 0; int(0..12)], [1, 0, 0, 0, 0, 0, 0, 0, 0, 0, 0, 0, 0; int(0..12)],
         [1, 0, 0, 0, 0, 0, 0, 0, 0, 0, 0, 0, 0; int(0..12)], [1, 0, 0, 0, 0, 0, 0, 0, 0, 0, 0, 0, 0; int(0..12)],
         [1, 0, 0, 0, 0, 0, 0, 0, 0, 0, 0, 0, 0; int(0..12)], [1, 0, 0, 0, 0, 0, 0, 0, 0, 0, 0, 0, 0; int(0..12)],
         [1, 0, 0, 0, 0, 0, 0, 0, 0, 0, 0, 0, 0; int(0..12)], [1, 0, 0, 0, 0, 0, 0, 0, 0, 0, 0, 0, 0; int(0..12)],
         [0, 1, 1, 1, 1, 1, 1, 1, 1, 1, 1, 1, 0; int(0..12)];
             int(0..12)]
$ Visualisation for C_FunctionND
$ 0 0 0 0 0 0 0 0 0 0 0 0 0
$ 1 0 0 0 0 0 0 0 0 0 0 0 0
$ 1 0 0 0 0 0 0 0 0 0 0 0 0
$ 1 0 0 0 0 0 0 0 0 0 0 0 0
$ 1 0 0 0 0 0 0 0 0 0 0 0 0
$ 1 0 0 0 0 0 0 0 0 0 0 0 0
$ 1 0 0 0 0 0 0 0 0 0 0 0 0
$ 1 0 0 0 0 0 0 0 0 0 0 0 0
$ 1 0 0 0 0 0 0 0 0 0 0 0 0
$ 1 0 0 0 0 0 0 0 0 0 0 0 0
$ 1 0 0 0 0 0 0 0 0 0 0 0 0
$ 1 0 0 0 0 0 0 0 0 0 0 0 0
$ 0 1 1 1 1 1 1 1 1 1 1 1 0

letting J_FunctionND be
        [[0, 1, 2, 3, 4, 5, 6, 7, 8, 9, 10, 11, 12; int(0..12)],
         [1, 1, 12, 12, 12, 12, 12, 12, 12, 12, 12, 12, 12; int(0..12)],
         [2, 12, 2, 12, 12, 12, 12, 12, 12, 12, 12, 12, 12; int(0..12)],
         [3, 12, 12, 3, 12, 12, 12, 12, 12, 12, 12, 12, 12; int(0..12)],
         [4, 12, 12, 12, 4, 12, 12, 12, 12, 12, 12, 12, 12; int(0..12)],
         [5, 12, 12, 12, 12, 5, 12, 12, 12, 12, 12, 12, 12; int(0..12)],
         [6, 12, 12, 12, 12, 12, 6, 12, 12, 12, 12, 12, 12; int(0..12)],
         [7, 12, 12, 12, 12, 12, 12, 7, 12, 12, 12, 12, 12; int(0..12)],
         [8, 12, 12, 12, 12, 12, 12, 12, 8, 12, 12, 12, 12; int(0..12)],
         [9, 12, 12, 12, 12, 12, 12, 12, 12, 9, 12, 12, 12; int(0..12)],
         [10, 12, 12, 12, 12, 12, 12, 12, 12, 12, 10, 12, 12; int(0..12)],
         [11, 12, 12, 12, 12, 12, 12, 12, 12, 12, 12, 11, 12; int(0..12)],
         [12, 12, 12, 12, 12, 12, 12, 12, 12, 12, 12, 12, 12; int(0..12)];
             int(0..12)]
$ Visualisation for J_FunctionND
$  0  1  2  3  4  5  6  7  8  9 10 11 12
$  1  1 12 12 12 12 12 12 12 12 12 12 12
$  2 12  2 12 12 12 12 12 12 12 12 12 12
$  3 12 12  3 12 12 12 12 12 12 12 12 12
$  4 12 12 12  4 12 12 12 12 12 12 12 12
$  5 12 12 12 12  5 12 12 12 12 12 12 12
$  6 12 12 12 12 12  6 12 12 12 12 12 12
$  7 12 12 12 12 12 12  7 12 12 12 12 12
$  8 12 12 12 12 12 12 12  8 12 12 12 12
$  9 12 12 12 12 12 12 12 12  9 12 12 12
$ 10 12 12 12 12 12 12 12 12 12 10 12 12
$ 11 12 12 12 12 12 12 12 12 12 12 11 12
$ 12 12 12 12 12 12 12 12 12 12 12 12 12

letting M_FunctionND be
        [[0, 0, 0, 0, 0, 0, 0, 0, 0, 0, 0, 0, 0; int(0..12)], [0, 1, 0, 0, 0, 0, 0, 0, 0, 0, 0, 0, 1; int(0..12)],
         [0, 0, 2, 0, 0, 0, 0, 0, 0, 0, 0, 0, 2; int(0..12)], [0, 0, 0, 3, 0, 0, 0, 0, 0, 0, 0, 0, 3; int(0..12)],
         [0, 0, 0, 0, 4, 0, 0, 0, 0, 0, 0, 0, 4; int(0..12)], [0, 0, 0, 0, 0, 5, 0, 0, 0, 0, 0, 0, 5; int(0..12)],
         [0, 0, 0, 0, 0, 0, 6, 0, 0, 0, 0, 0, 6; int(0..12)], [0, 0, 0, 0, 0, 0, 0, 7, 0, 0, 0, 0, 7; int(0..12)],
         [0, 0, 0, 0, 0, 0, 0, 0, 8, 0, 0, 0, 8; int(0..12)], [0, 0, 0, 0, 0, 0, 0, 0, 0, 9, 0, 0, 9; int(0..12)],
         [0, 0, 0, 0, 0, 0, 0, 0, 0, 0, 10, 0, 10; int(0..12)], [0, 0, 0, 0, 0, 0, 0, 0, 0, 0, 0, 11, 11; int(0..12)],
         [0, 1, 2, 3, 4, 5, 6, 7, 8, 9, 10, 11, 12; int(0..12)];
             int(0..12)]
$ Visualisation for M_FunctionND
$  0  0  0  0  0  0  0  0  0  0  0  0  0
$  0  1  0  0  0  0  0  0  0  0  0  0  1
$  0  0  2  0  0  0  0  0  0  0  0  0  2
$  0  0  0  3  0  0  0  0  0  0  0  0  3
$  0  0  0  0  4  0  0  0  0  0  0  0  4
$  0  0  0  0  0  5  0  0  0  0  0  0  5
$  0  0  0  0  0  0  6  0  0  0  0  0  6
$  0  0  0  0  0  0  0  7  0  0  0  0  7
$  0  0  0  0  0  0  0  0  8  0  0  0  8
$  0  0  0  0  0  0  0  0  0  9  0  0  9
$  0  0  0  0  0  0  0  0  0  0 10  0 10
$  0  0  0  0  0  0  0  0  0  0  0 11 11
$  0  1  2  3  4  5  6  7  8  9 10 11 12

letting R_Function1D be [0, 1, 1, 1, 1, 1, 1, 1, 1, 1, 1, 1, 2; int(0..12)]
